8,6	0,0	14,6	5,9	0,0	0,0	0,0	0,0	0,0	12,4
13,8	8,5	0,0	10,3	9,5	0,0	0,0	16,2	0,0	0,0
0,0	0,0	18,2	0,0	6,3	14,6	0,0	0,0	13,1	0,0
8,8	0,0	17,6	0,0	0,0	0,0	7,1	0,0	0,0	0,0
0,0	5,1	0,0	13,4	19,7	0,0	0,0	14,1	0,0	0,0
0,0	6,8	19,0	0,0	13,2	8,5	0,0	0,0	7,3	0,0
0,0	13,0	0,0	11,1	0,0	0,0	9,3	0,0	0,0	19,3
7,0	0,0	12,1	0,0	0,0	0,0	0,0	0,0	0,0	10,6
0,0	7,1	0,0	6,7	18,8	0,0	0,0	10,0	0,0	0,0
0,0	0,0	9,3	0,0	0,0	7,2	17,3	0,0	0,0	17,9
									
3,3	3,5	4,4	4,4	3,9	2,6	4,8	4,2	4,3	3,2
